
Gurobi 8.0.1 (linux64, Python) logging started Tue Jan 15 13:30:46 2019

Optimize a model with 1 rows, 4 columns and 4 nonzeros
Variable types: 0 continuous, 4 integer (4 binary)
Coefficient statistics:
  Matrix range     [2e+00, 4e+01]
  Objective range  [0e+00, 0e+00]
  Bounds range     [1e+00, 1e+00]
  RHS range        [2e+01, 2e+01]
Found heuristic solution: objective 29.0000000

Explored 0 nodes (0 simplex iterations) in 0.02 seconds
Thread count was 1 (of 8 available processors)

Solution count 1: 29 

Optimal solution found (tolerance 1.00e-04)
Best objective 2.900000000000e+01, best bound 2.900000000000e+01, gap 0.0000%
Optimize a model with 1 rows, 4 columns and 4 nonzeros
Variable types: 0 continuous, 4 integer (4 binary)
Coefficient statistics:
  Matrix range     [2e+00, 4e+01]
  Objective range  [0e+00, 0e+00]
  Bounds range     [1e+00, 1e+00]
  RHS range        [2e+01, 2e+01]

Loaded MIP start with objective 43


Explored 0 nodes (0 simplex iterations) in 0.00 seconds
Thread count was 1 (of 8 available processors)

Solution count 1: 43 

Optimal solution found (tolerance 1.00e-04)
Best objective 4.300000000000e+01, best bound 4.300000000000e+01, gap 0.0000%
Optimize a model with 1 rows, 4 columns and 4 nonzeros
Variable types: 0 continuous, 4 integer (4 binary)
Coefficient statistics:
  Matrix range     [2e+00, 4e+01]
  Objective range  [0e+00, 0e+00]
  Bounds range     [1e+00, 1e+00]
  RHS range        [2e+01, 2e+01]

Loaded MIP start with objective 28


Explored 0 nodes (0 simplex iterations) in 0.00 seconds
Thread count was 1 (of 8 available processors)

Solution count 1: 28 

Optimal solution found (tolerance 1.00e-04)
Best objective 2.800000000000e+01, best bound 2.800000000000e+01, gap 0.0000%

Gurobi 8.0.1 (linux64, Python) logging started Tue Jan 15 13:31:12 2019


Gurobi 8.0.1 (linux64, Python) logging started Tue Jan 15 13:33:19 2019


Gurobi 8.0.1 (linux64, Python) logging started Tue Jan 15 13:33:34 2019


Gurobi 8.0.1 (linux64, Python) logging started Tue Jan 15 13:36:28 2019


Gurobi 8.0.1 (linux64, Python) logging started Tue Jan 15 13:36:43 2019


Gurobi 8.0.1 (linux64, Python) logging started Tue Jan 15 13:37:24 2019


Gurobi 8.0.1 (linux64, Python) logging started Tue Jan 15 13:37:45 2019


Gurobi 8.0.1 (linux64, Python) logging started Tue Jan 15 13:38:50 2019


Gurobi 8.0.1 (linux64, Python) logging started Tue Jan 15 13:40:26 2019


Gurobi 8.0.1 (linux64, Python) logging started Tue Jan 15 13:40:36 2019


Gurobi 8.0.1 (linux64, Python) logging started Tue Jan 15 13:40:43 2019


Gurobi 8.0.1 (linux64, Python) logging started Tue Jan 15 20:14:53 2019


Gurobi 8.0.1 (linux64, Python) logging started Tue Jan 15 20:15:09 2019


Gurobi 8.0.1 (linux64, Python) logging started Tue Jan 15 20:15:21 2019


Gurobi 8.0.1 (linux64, Python) logging started Tue Jan 15 20:16:05 2019


Gurobi 8.0.1 (linux64, Python) logging started Tue Jan 15 20:16:35 2019


Gurobi 8.0.1 (linux64, Python) logging started Tue Jan 15 20:17:33 2019


Gurobi 8.0.1 (linux64, Python) logging started Tue Jan 15 20:17:55 2019


Gurobi 8.0.1 (linux64, Python) logging started Tue Jan 15 20:18:08 2019


Gurobi 8.0.1 (linux64, Python) logging started Tue Jan 15 20:18:58 2019


Gurobi 8.0.1 (linux64, Python) logging started Tue Jan 15 20:20:25 2019


Gurobi 8.0.1 (linux64, Python) logging started Tue Jan 15 20:20:38 2019


Gurobi 8.0.1 (linux64, Python) logging started Tue Jan 15 20:20:48 2019


Gurobi 8.0.1 (linux64, Python) logging started Tue Jan 15 20:21:04 2019


Gurobi 8.0.1 (linux64, Python) logging started Tue Jan 15 20:21:32 2019


Gurobi 8.0.1 (linux64, Python) logging started Tue Jan 15 20:21:52 2019


Gurobi 8.0.1 (linux64, Python) logging started Tue Jan 15 20:22:04 2019


Gurobi 8.0.1 (linux64, Python) logging started Tue Jan 15 20:22:31 2019


Gurobi 8.0.1 (linux64, Python) logging started Tue Jan 15 20:22:47 2019


Gurobi 8.0.1 (linux64, Python) logging started Tue Jan 15 20:23:03 2019


Gurobi 8.0.1 (linux64, Python) logging started Tue Jan 15 20:23:20 2019


Gurobi 8.0.1 (linux64, Python) logging started Tue Jan 15 20:23:31 2019


Gurobi 8.0.1 (linux64, Python) logging started Tue Jan 15 20:23:40 2019


Gurobi 8.0.1 (linux64, Python) logging started Tue Jan 15 20:23:49 2019


Gurobi 8.0.1 (linux64, Python) logging started Tue Jan 15 20:32:40 2019


Gurobi 8.0.1 (linux64, Python) logging started Tue Jan 15 20:32:49 2019


Gurobi 8.0.1 (linux64, Python) logging started Tue Jan 15 20:34:25 2019


Gurobi 8.0.1 (linux64, Python) logging started Tue Jan 15 20:34:39 2019


Gurobi 8.0.1 (linux64, Python) logging started Tue Jan 15 20:35:42 2019


Gurobi 8.0.1 (linux64, Python) logging started Tue Jan 15 20:37:18 2019


Gurobi 8.0.1 (linux64, Python) logging started Tue Jan 15 20:38:17 2019


Gurobi 8.0.1 (linux64, Python) logging started Tue Jan 15 20:38:38 2019


Gurobi 8.0.1 (linux64, Python) logging started Tue Jan 15 20:38:53 2019


Gurobi 8.0.1 (linux64, Python) logging started Tue Jan 15 20:39:22 2019


Gurobi 8.0.1 (linux64, Python) logging started Tue Jan 15 20:39:38 2019


Gurobi 8.0.1 (linux64, Python) logging started Tue Jan 15 20:39:43 2019


Gurobi 8.0.1 (linux64, Python) logging started Tue Jan 15 20:40:34 2019


Gurobi 8.0.1 (linux64, Python) logging started Tue Jan 15 20:42:01 2019


Gurobi 8.0.1 (linux64, Python) logging started Tue Jan 15 20:42:28 2019


Gurobi 8.0.1 (linux64, Python) logging started Tue Jan 15 20:42:53 2019


Gurobi 8.0.1 (linux64, Python) logging started Tue Jan 15 20:43:14 2019


Gurobi 8.0.1 (linux64, Python) logging started Tue Jan 15 20:43:42 2019


Gurobi 8.0.1 (linux64, Python) logging started Tue Jan 15 20:43:56 2019


Gurobi 8.0.1 (linux64, Python) logging started Tue Jan 15 20:44:56 2019


Gurobi 8.0.1 (linux64, Python) logging started Tue Jan 15 20:51:47 2019


Gurobi 8.0.1 (linux64, Python) logging started Tue Jan 15 20:52:33 2019


Gurobi 8.0.1 (linux64, Python) logging started Tue Jan 15 20:52:46 2019


Gurobi 8.0.1 (linux64, Python) logging started Tue Jan 15 20:53:36 2019


Gurobi 8.0.1 (linux64, Python) logging started Tue Jan 15 20:54:31 2019


Gurobi 8.0.1 (linux64, Python) logging started Tue Jan 15 20:55:43 2019


Gurobi 8.0.1 (linux64, Python) logging started Tue Jan 15 20:56:11 2019


Gurobi 8.0.1 (linux64, Python) logging started Tue Jan 15 20:57:33 2019


Gurobi 8.0.1 (linux64, Python) logging started Tue Jan 15 20:57:39 2019


Gurobi 8.0.1 (linux64, Python) logging started Tue Jan 15 20:58:16 2019


Gurobi 8.0.1 (linux64, Python) logging started Tue Jan 15 20:58:30 2019


Gurobi 8.0.1 (linux64, Python) logging started Tue Jan 15 20:59:24 2019


Gurobi 8.0.1 (linux64, Python) logging started Tue Jan 15 20:59:49 2019


Gurobi 8.0.1 (linux64, Python) logging started Tue Jan 15 20:59:55 2019


Gurobi 8.0.1 (linux64, Python) logging started Tue Jan 15 21:01:52 2019


Gurobi 8.0.1 (linux64, Python) logging started Tue Jan 15 21:01:58 2019


Gurobi 8.0.1 (linux64, Python) logging started Tue Jan 15 21:04:12 2019


Gurobi 8.0.1 (linux64, Python) logging started Tue Jan 15 21:04:57 2019


Gurobi 8.0.1 (linux64, Python) logging started Tue Jan 15 21:05:20 2019


Gurobi 8.0.1 (linux64, Python) logging started Tue Jan 15 21:06:16 2019


Gurobi 8.0.1 (linux64, Python) logging started Tue Jan 15 21:06:32 2019


Gurobi 8.0.1 (linux64, Python) logging started Tue Jan 15 21:06:51 2019


Gurobi 8.0.1 (linux64, Python) logging started Tue Jan 15 21:06:52 2019


Gurobi 8.0.1 (linux64, Python) logging started Tue Jan 15 21:06:54 2019


Gurobi 8.0.1 (linux64, Python) logging started Tue Jan 15 21:06:56 2019


Gurobi 8.0.1 (linux64, Python) logging started Tue Jan 15 21:06:57 2019


Gurobi 8.0.1 (linux64, Python) logging started Tue Jan 15 21:07:27 2019


Gurobi 8.0.1 (linux64, Python) logging started Tue Jan 15 21:08:10 2019


Gurobi 8.0.1 (linux64, Python) logging started Tue Jan 15 23:45:44 2019


Gurobi 8.0.1 (linux64, Python) logging started Tue Jan 15 23:54:10 2019


Gurobi 8.0.1 (linux64, Python) logging started Tue Jan 15 23:57:01 2019


Gurobi 8.0.1 (linux64, Python) logging started Wed Jan 16 00:00:21 2019


Gurobi 8.0.1 (linux64, Python) logging started Wed Jan 16 00:01:21 2019


Gurobi 8.0.1 (linux64, Python) logging started Wed Jan 16 00:02:30 2019


Gurobi 8.0.1 (linux64, Python) logging started Wed Jan 16 00:02:43 2019


Gurobi 8.0.1 (linux64, Python) logging started Wed Jan 16 00:03:10 2019


Gurobi 8.0.1 (linux64, Python) logging started Wed Jan 16 00:08:41 2019


Gurobi 8.0.1 (linux64, Python) logging started Wed Jan 16 00:22:28 2019


Gurobi 8.0.1 (linux64, Python) logging started Wed Jan 16 00:25:11 2019


Gurobi 8.0.1 (linux64, Python) logging started Wed Jan 16 00:27:28 2019


Gurobi 8.0.1 (linux64, Python) logging started Wed Jan 16 10:45:43 2019


Gurobi 8.0.1 (linux64, Python) logging started Wed Jan 16 10:49:47 2019


Gurobi 8.0.1 (linux64, Python) logging started Wed Jan 16 10:50:03 2019


Gurobi 8.0.1 (linux64, Python) logging started Wed Jan 16 10:50:19 2019


Gurobi 8.0.1 (linux64, Python) logging started Wed Jan 16 10:53:38 2019


Gurobi 8.0.1 (linux64, Python) logging started Wed Jan 16 10:53:52 2019


Gurobi 8.0.1 (linux64, Python) logging started Wed Jan 16 10:54:23 2019


Gurobi 8.0.1 (linux64, Python) logging started Wed Jan 16 10:55:17 2019


Gurobi 8.0.1 (linux64, Python) logging started Wed Jan 16 10:59:59 2019


Gurobi 8.0.1 (linux64, Python) logging started Wed Jan 16 11:01:22 2019


Gurobi 8.0.1 (linux64, Python) logging started Wed Jan 16 11:11:37 2019


Gurobi 8.0.1 (linux64, Python) logging started Wed Jan 16 11:12:03 2019


Gurobi 8.0.1 (linux64, Python) logging started Wed Jan 16 11:13:33 2019


Gurobi 8.0.1 (linux64, Python) logging started Wed Jan 16 11:13:51 2019


Gurobi 8.0.1 (linux64, Python) logging started Wed Jan 16 11:14:40 2019


Gurobi 8.0.1 (linux64, Python) logging started Wed Jan 16 11:14:50 2019


Gurobi 8.0.1 (linux64, Python) logging started Wed Jan 16 11:34:52 2019


Gurobi 8.0.1 (linux64, Python) logging started Wed Jan 16 11:35:13 2019


Gurobi 8.0.1 (linux64, Python) logging started Wed Jan 16 11:59:47 2019


Gurobi 8.0.1 (linux64, Python) logging started Wed Jan 16 12:00:58 2019


Gurobi 8.0.1 (linux64, Python) logging started Wed Jan 16 12:01:15 2019


Gurobi 8.0.1 (linux64, Python) logging started Wed Jan 16 12:01:44 2019


Gurobi 8.0.1 (linux64, Python) logging started Wed Jan 16 12:04:30 2019


Gurobi 8.0.1 (linux64, Python) logging started Wed Jan 16 12:04:37 2019


Gurobi 8.0.1 (linux64, Python) logging started Wed Jan 16 12:04:54 2019


Gurobi 8.0.1 (linux64, Python) logging started Wed Jan 16 12:05:05 2019


Gurobi 8.0.1 (linux64, Python) logging started Wed Jan 16 12:05:56 2019


Gurobi 8.0.1 (linux64, Python) logging started Wed Jan 16 12:06:04 2019


Gurobi 8.0.1 (linux64, Python) logging started Wed Jan 16 12:06:07 2019


Gurobi 8.0.1 (linux64, Python) logging started Wed Jan 16 12:06:10 2019


Gurobi 8.0.1 (linux64, Python) logging started Wed Jan 16 12:06:37 2019


Gurobi 8.0.1 (linux64, Python) logging started Wed Jan 16 12:06:44 2019


Gurobi 8.0.1 (linux64, Python) logging started Wed Jan 16 12:06:46 2019


Gurobi 8.0.1 (linux64, Python) logging started Wed Jan 16 12:06:47 2019


Gurobi 8.0.1 (linux64, Python) logging started Wed Jan 16 12:06:56 2019


Gurobi 8.0.1 (linux64, Python) logging started Wed Jan 16 12:07:03 2019


Gurobi 8.0.1 (linux64, Python) logging started Wed Jan 16 12:07:24 2019


Gurobi 8.0.1 (linux64, Python) logging started Wed Jan 16 12:07:34 2019


Gurobi 8.0.1 (linux64, Python) logging started Wed Jan 16 12:07:38 2019


Gurobi 8.0.1 (linux64, Python) logging started Wed Jan 16 12:07:48 2019


Gurobi 8.0.1 (linux64, Python) logging started Wed Jan 16 12:08:36 2019


Gurobi 8.0.1 (linux64, Python) logging started Wed Jan 16 12:08:48 2019


Gurobi 8.0.1 (linux64, Python) logging started Wed Jan 16 12:09:06 2019


Gurobi 8.0.1 (linux64, Python) logging started Wed Jan 16 12:09:29 2019


Gurobi 8.0.1 (linux64, Python) logging started Wed Jan 16 12:10:09 2019


Gurobi 8.0.1 (linux64, Python) logging started Wed Jan 16 12:10:36 2019


Gurobi 8.0.1 (linux64, Python) logging started Wed Jan 16 12:10:46 2019


Gurobi 8.0.1 (linux64, Python) logging started Wed Jan 16 12:13:15 2019


Gurobi 8.0.1 (linux64, Python) logging started Wed Jan 16 12:13:53 2019


Gurobi 8.0.1 (linux64, Python) logging started Wed Jan 16 12:15:38 2019


Gurobi 8.0.1 (linux64, Python) logging started Wed Jan 16 12:22:23 2019


Gurobi 8.0.1 (linux64, Python) logging started Wed Jan 16 12:28:03 2019


Gurobi 8.0.1 (linux64, Python) logging started Wed Jan 16 12:30:20 2019


Gurobi 8.0.1 (linux64, Python) logging started Wed Jan 16 12:30:36 2019


Gurobi 8.0.1 (linux64, Python) logging started Wed Jan 16 12:31:59 2019


Gurobi 8.0.1 (linux64, Python) logging started Wed Jan 16 12:32:15 2019


Gurobi 8.0.1 (linux64, Python) logging started Wed Jan 16 12:33:35 2019


Gurobi 8.0.1 (linux64, Python) logging started Wed Jan 16 12:33:59 2019


Gurobi 8.0.1 (linux64, Python) logging started Wed Jan 16 12:34:11 2019


Gurobi 8.0.1 (linux64, Python) logging started Wed Jan 16 12:34:35 2019


Gurobi 8.0.1 (linux64, Python) logging started Wed Jan 16 12:34:39 2019


Gurobi 8.0.1 (linux64, Python) logging started Wed Jan 16 12:34:43 2019


Gurobi 8.0.1 (linux64, Python) logging started Wed Jan 16 12:34:44 2019


Gurobi 8.0.1 (linux64, Python) logging started Wed Jan 16 12:35:08 2019


Gurobi 8.0.1 (linux64, Python) logging started Wed Jan 16 12:35:12 2019


Gurobi 8.0.1 (linux64, Python) logging started Wed Jan 16 12:35:13 2019


Gurobi 8.0.1 (linux64, Python) logging started Wed Jan 16 12:35:14 2019


Gurobi 8.0.1 (linux64, Python) logging started Wed Jan 16 12:35:15 2019


Gurobi 8.0.1 (linux64, Python) logging started Wed Jan 16 12:35:16 2019


Gurobi 8.0.1 (linux64, Python) logging started Wed Jan 16 12:35:16 2019


Gurobi 8.0.1 (linux64, Python) logging started Wed Jan 16 12:35:17 2019


Gurobi 8.0.1 (linux64, Python) logging started Wed Jan 16 12:35:18 2019


Gurobi 8.0.1 (linux64, Python) logging started Wed Jan 16 12:36:07 2019


Gurobi 8.0.1 (linux64, Python) logging started Wed Jan 16 12:36:14 2019


Gurobi 8.0.1 (linux64, Python) logging started Wed Jan 16 12:36:25 2019


Gurobi 8.0.1 (linux64, Python) logging started Wed Jan 16 12:36:50 2019


Gurobi 8.0.1 (linux64, Python) logging started Wed Jan 16 12:37:16 2019


Gurobi 8.0.1 (linux64, Python) logging started Wed Jan 16 12:37:31 2019


Gurobi 8.0.1 (linux64, Python) logging started Wed Jan 16 12:37:33 2019


Gurobi 8.0.1 (linux64, Python) logging started Wed Jan 16 12:37:34 2019


Gurobi 8.0.1 (linux64, Python) logging started Wed Jan 16 12:37:35 2019


Gurobi 8.0.1 (linux64, Python) logging started Wed Jan 16 12:37:36 2019


Gurobi 8.0.1 (linux64, Python) logging started Wed Jan 16 12:37:43 2019


Gurobi 8.0.1 (linux64, Python) logging started Wed Jan 16 12:37:44 2019


Gurobi 8.0.1 (linux64, Python) logging started Wed Jan 16 12:37:44 2019


Gurobi 8.0.1 (linux64, Python) logging started Wed Jan 16 12:41:35 2019


Gurobi 8.0.1 (linux64, Python) logging started Wed Jan 16 12:41:37 2019


Gurobi 8.0.1 (linux64, Python) logging started Wed Jan 16 12:41:38 2019


Gurobi 8.0.1 (linux64, Python) logging started Wed Jan 16 12:41:39 2019


Gurobi 8.0.1 (linux64, Python) logging started Wed Jan 16 12:41:49 2019


Gurobi 8.0.1 (linux64, Python) logging started Wed Jan 16 12:41:51 2019


Gurobi 8.0.1 (linux64, Python) logging started Wed Jan 16 12:41:52 2019


Gurobi 8.0.1 (linux64, Python) logging started Wed Jan 16 12:41:56 2019


Gurobi 8.0.1 (linux64, Python) logging started Wed Jan 16 12:42:59 2019


Gurobi 8.0.1 (linux64, Python) logging started Wed Jan 16 12:47:39 2019


Gurobi 8.0.1 (linux64, Python) logging started Wed Jan 16 12:47:43 2019


Gurobi 8.0.1 (linux64, Python) logging started Wed Jan 16 12:49:11 2019


Gurobi 8.0.1 (linux64, Python) logging started Wed Jan 16 12:49:40 2019


Gurobi 8.0.1 (linux64, Python) logging started Wed Jan 16 12:51:51 2019


Gurobi 8.0.1 (linux64, Python) logging started Wed Jan 16 12:58:58 2019


Gurobi 8.0.1 (linux64, Python) logging started Wed Jan 16 12:59:21 2019


Gurobi 8.0.1 (linux64, Python) logging started Wed Jan 16 12:59:31 2019


Gurobi 8.0.1 (linux64, Python) logging started Wed Jan 16 12:59:33 2019


Gurobi 8.0.1 (linux64, Python) logging started Wed Jan 16 12:59:38 2019


Gurobi 8.0.1 (linux64, Python) logging started Wed Jan 16 13:05:30 2019


Gurobi 8.0.1 (linux64, Python) logging started Wed Jan 16 13:05:44 2019


Gurobi 8.0.1 (linux64, Python) logging started Wed Jan 16 13:05:51 2019


Gurobi 8.0.1 (linux64, Python) logging started Wed Jan 16 13:06:14 2019


Gurobi 8.0.1 (linux64, Python) logging started Wed Jan 16 13:06:25 2019


Gurobi 8.0.1 (linux64, Python) logging started Wed Jan 16 13:06:30 2019


Gurobi 8.0.1 (linux64, Python) logging started Wed Jan 16 13:07:30 2019


Gurobi 8.0.1 (linux64, Python) logging started Wed Jan 16 13:07:32 2019


Gurobi 8.0.1 (linux64, Python) logging started Wed Jan 16 13:07:33 2019


Gurobi 8.0.1 (linux64, Python) logging started Wed Jan 16 13:09:06 2019


Gurobi 8.0.1 (linux64, Python) logging started Wed Jan 16 13:09:08 2019


Gurobi 8.0.1 (linux64, Python) logging started Wed Jan 16 13:09:13 2019


Gurobi 8.0.1 (linux64, Python) logging started Wed Jan 16 13:09:20 2019


Gurobi 8.0.1 (linux64, Python) logging started Wed Jan 16 13:10:02 2019


Gurobi 8.0.1 (linux64, Python) logging started Wed Jan 16 13:10:04 2019


Gurobi 8.0.1 (linux64, Python) logging started Wed Jan 16 13:10:05 2019


Gurobi 8.0.1 (linux64, Python) logging started Wed Jan 16 13:10:07 2019


Gurobi 8.0.1 (linux64, Python) logging started Wed Jan 16 13:10:09 2019


Gurobi 8.0.1 (linux64, Python) logging started Wed Jan 16 13:10:11 2019


Gurobi 8.0.1 (linux64, Python) logging started Wed Jan 16 13:11:26 2019


Gurobi 8.0.1 (linux64, Python) logging started Wed Jan 16 13:11:27 2019


Gurobi 8.0.1 (linux64, Python) logging started Wed Jan 16 13:11:29 2019


Gurobi 8.0.1 (linux64, Python) logging started Wed Jan 16 13:11:41 2019


Gurobi 8.0.1 (linux64, Python) logging started Wed Jan 16 13:11:47 2019


Gurobi 8.0.1 (linux64, Python) logging started Wed Jan 16 13:15:06 2019


Gurobi 8.0.1 (linux64, Python) logging started Wed Jan 16 13:15:26 2019


Gurobi 8.0.1 (linux64, Python) logging started Wed Jan 16 13:16:50 2019


Gurobi 8.0.1 (linux64, Python) logging started Wed Jan 16 13:16:53 2019


Gurobi 8.0.1 (linux64, Python) logging started Wed Jan 16 13:16:56 2019


Gurobi 8.0.1 (linux64, Python) logging started Wed Jan 16 13:17:03 2019


Gurobi 8.0.1 (linux64, Python) logging started Wed Jan 16 13:17:06 2019


Gurobi 8.0.1 (linux64, Python) logging started Wed Jan 16 13:17:11 2019


Gurobi 8.0.1 (linux64, Python) logging started Wed Jan 16 13:17:13 2019


Gurobi 8.0.1 (linux64, Python) logging started Wed Jan 16 13:17:17 2019


Gurobi 8.0.1 (linux64, Python) logging started Wed Jan 16 13:17:18 2019


Gurobi 8.0.1 (linux64, Python) logging started Wed Jan 16 13:17:25 2019


Gurobi 8.0.1 (linux64, Python) logging started Wed Jan 16 13:17:27 2019


Gurobi 8.0.1 (linux64, Python) logging started Wed Jan 16 13:17:30 2019


Gurobi 8.0.1 (linux64, Python) logging started Wed Jan 16 13:17:33 2019


Gurobi 8.0.1 (linux64, Python) logging started Wed Jan 16 13:17:37 2019


Gurobi 8.0.1 (linux64, Python) logging started Wed Jan 16 13:17:39 2019


Gurobi 8.0.1 (linux64, Python) logging started Wed Jan 16 13:17:41 2019


Gurobi 8.0.1 (linux64, Python) logging started Wed Jan 16 13:17:42 2019


Gurobi 8.0.1 (linux64, Python) logging started Wed Jan 16 13:17:44 2019


Gurobi 8.0.1 (linux64, Python) logging started Wed Jan 16 13:17:46 2019


Gurobi 8.0.1 (linux64, Python) logging started Wed Jan 16 13:17:49 2019


Gurobi 8.0.1 (linux64, Python) logging started Wed Jan 16 13:17:51 2019


Gurobi 8.0.1 (linux64, Python) logging started Wed Jan 16 13:17:52 2019


Gurobi 8.0.1 (linux64, Python) logging started Wed Jan 16 13:17:54 2019


Gurobi 8.0.1 (linux64, Python) logging started Wed Jan 16 13:17:57 2019


Gurobi 8.0.1 (linux64, Python) logging started Wed Jan 16 13:18:00 2019


Gurobi 8.0.1 (linux64, Python) logging started Wed Jan 16 13:18:05 2019


Gurobi 8.0.1 (linux64, Python) logging started Wed Jan 16 13:18:08 2019


Gurobi 8.0.1 (linux64, Python) logging started Wed Jan 16 13:18:11 2019


Gurobi 8.0.1 (linux64, Python) logging started Wed Jan 16 13:18:12 2019


Gurobi 8.0.1 (linux64, Python) logging started Wed Jan 16 13:18:15 2019


Gurobi 8.0.1 (linux64, Python) logging started Wed Jan 16 13:18:16 2019


Gurobi 8.0.1 (linux64, Python) logging started Wed Jan 16 13:18:17 2019


Gurobi 8.0.1 (linux64, Python) logging started Wed Jan 16 13:18:19 2019


Gurobi 8.0.1 (linux64, Python) logging started Wed Jan 16 13:18:20 2019


Gurobi 8.0.1 (linux64, Python) logging started Wed Jan 16 13:18:21 2019


Gurobi 8.0.1 (linux64, Python) logging started Wed Jan 16 13:18:30 2019


Gurobi 8.0.1 (linux64, Python) logging started Wed Jan 16 13:18:31 2019


Gurobi 8.0.1 (linux64, Python) logging started Wed Jan 16 13:18:32 2019


Gurobi 8.0.1 (linux64, Python) logging started Wed Jan 16 13:18:33 2019


Gurobi 8.0.1 (linux64, Python) logging started Wed Jan 16 13:18:34 2019


Gurobi 8.0.1 (linux64, Python) logging started Wed Jan 16 13:18:35 2019


Gurobi 8.0.1 (linux64, Python) logging started Wed Jan 16 13:18:36 2019


Gurobi 8.0.1 (linux64, Python) logging started Wed Jan 16 13:18:37 2019


Gurobi 8.0.1 (linux64, Python) logging started Wed Jan 16 13:18:39 2019


Gurobi 8.0.1 (linux64, Python) logging started Wed Jan 16 13:18:40 2019


Gurobi 8.0.1 (linux64, Python) logging started Wed Jan 16 13:18:41 2019


Gurobi 8.0.1 (linux64, Python) logging started Wed Jan 16 13:18:42 2019


Gurobi 8.0.1 (linux64, Python) logging started Wed Jan 16 13:18:46 2019


Gurobi 8.0.1 (linux64, Python) logging started Wed Jan 16 13:18:47 2019


Gurobi 8.0.1 (linux64, Python) logging started Wed Jan 16 13:18:48 2019


Gurobi 8.0.1 (linux64, Python) logging started Wed Jan 16 13:18:48 2019


Gurobi 8.0.1 (linux64, Python) logging started Wed Jan 16 13:18:49 2019


Gurobi 8.0.1 (linux64, Python) logging started Wed Jan 16 13:18:51 2019


Gurobi 8.0.1 (linux64, Python) logging started Wed Jan 16 13:18:52 2019


Gurobi 8.0.1 (linux64, Python) logging started Wed Jan 16 13:18:53 2019


Gurobi 8.0.1 (linux64, Python) logging started Wed Jan 16 13:18:54 2019


Gurobi 8.0.1 (linux64, Python) logging started Wed Jan 16 13:18:55 2019


Gurobi 8.0.1 (linux64, Python) logging started Wed Jan 16 13:18:56 2019


Gurobi 8.0.1 (linux64, Python) logging started Wed Jan 16 13:18:57 2019


Gurobi 8.0.1 (linux64, Python) logging started Wed Jan 16 13:18:58 2019


Gurobi 8.0.1 (linux64, Python) logging started Wed Jan 16 13:19:13 2019


Gurobi 8.0.1 (linux64, Python) logging started Wed Jan 16 13:19:15 2019


Gurobi 8.0.1 (linux64, Python) logging started Wed Jan 16 13:19:16 2019


Gurobi 8.0.1 (linux64, Python) logging started Wed Jan 16 13:19:17 2019


Gurobi 8.0.1 (linux64, Python) logging started Wed Jan 16 13:19:18 2019


Gurobi 8.0.1 (linux64, Python) logging started Wed Jan 16 13:19:18 2019


Gurobi 8.0.1 (linux64, Python) logging started Wed Jan 16 13:25:28 2019


Gurobi 8.0.1 (linux64, Python) logging started Wed Jan 16 13:27:04 2019


Gurobi 8.0.1 (linux64, Python) logging started Wed Jan 16 13:27:55 2019


Gurobi 8.0.1 (linux64, Python) logging started Wed Jan 16 13:28:04 2019


Gurobi 8.0.1 (linux64, Python) logging started Wed Jan 16 13:28:28 2019


Gurobi 8.0.1 (linux64, Python) logging started Wed Jan 16 13:28:42 2019


Gurobi 8.0.1 (linux64, Python) logging started Wed Jan 16 13:28:50 2019


Gurobi 8.0.1 (linux64, Python) logging started Wed Jan 16 13:28:51 2019


Gurobi 8.0.1 (linux64, Python) logging started Wed Jan 16 13:28:52 2019


Gurobi 8.0.1 (linux64, Python) logging started Wed Jan 16 13:28:53 2019


Gurobi 8.0.1 (linux64, Python) logging started Wed Jan 16 13:28:53 2019


Gurobi 8.0.1 (linux64, Python) logging started Wed Jan 16 13:28:54 2019


Gurobi 8.0.1 (linux64, Python) logging started Wed Jan 16 13:28:55 2019


Gurobi 8.0.1 (linux64, Python) logging started Wed Jan 16 13:28:56 2019


Gurobi 8.0.1 (linux64, Python) logging started Wed Jan 16 13:28:56 2019


Gurobi 8.0.1 (linux64, Python) logging started Wed Jan 16 13:28:57 2019


Gurobi 8.0.1 (linux64, Python) logging started Wed Jan 16 13:28:58 2019


Gurobi 8.0.1 (linux64, Python) logging started Wed Jan 16 13:28:58 2019


Gurobi 8.0.1 (linux64, Python) logging started Wed Jan 16 13:28:59 2019


Gurobi 8.0.1 (linux64, Python) logging started Wed Jan 16 13:29:00 2019


Gurobi 8.0.1 (linux64, Python) logging started Wed Jan 16 13:29:01 2019


Gurobi 8.0.1 (linux64, Python) logging started Wed Jan 16 13:29:01 2019


Gurobi 8.0.1 (linux64, Python) logging started Wed Jan 16 13:29:02 2019


Gurobi 8.0.1 (linux64, Python) logging started Wed Jan 16 13:29:03 2019


Gurobi 8.0.1 (linux64, Python) logging started Wed Jan 16 13:29:03 2019


Gurobi 8.0.1 (linux64, Python) logging started Wed Jan 16 13:29:36 2019


Gurobi 8.0.1 (linux64, Python) logging started Wed Jan 16 13:31:28 2019


Gurobi 8.0.1 (linux64, Python) logging started Wed Jan 16 13:32:33 2019


Gurobi 8.0.1 (linux64, Python) logging started Wed Jan 16 13:33:11 2019


Gurobi 8.0.1 (linux64, Python) logging started Wed Jan 16 13:33:13 2019


Gurobi 8.0.1 (linux64, Python) logging started Wed Jan 16 13:33:14 2019


Gurobi 8.0.1 (linux64, Python) logging started Wed Jan 16 13:33:15 2019


Gurobi 8.0.1 (linux64, Python) logging started Wed Jan 16 13:33:15 2019


Gurobi 8.0.1 (linux64, Python) logging started Wed Jan 16 13:33:16 2019


Gurobi 8.0.1 (linux64, Python) logging started Wed Jan 16 13:33:17 2019


Gurobi 8.0.1 (linux64, Python) logging started Wed Jan 16 13:33:18 2019


Gurobi 8.0.1 (linux64, Python) logging started Wed Jan 16 13:33:18 2019


Gurobi 8.0.1 (linux64, Python) logging started Wed Jan 16 13:33:19 2019


Gurobi 8.0.1 (linux64, Python) logging started Wed Jan 16 13:33:20 2019


Gurobi 8.0.1 (linux64, Python) logging started Wed Jan 16 13:33:20 2019


Gurobi 8.0.1 (linux64, Python) logging started Wed Jan 16 13:33:21 2019


Gurobi 8.0.1 (linux64, Python) logging started Wed Jan 16 13:33:22 2019


Gurobi 8.0.1 (linux64, Python) logging started Wed Jan 16 13:33:22 2019


Gurobi 8.0.1 (linux64, Python) logging started Wed Jan 16 13:33:23 2019


Gurobi 8.0.1 (linux64, Python) logging started Wed Jan 16 13:33:24 2019


Gurobi 8.0.1 (linux64, Python) logging started Wed Jan 16 13:33:24 2019


Gurobi 8.0.1 (linux64, Python) logging started Wed Jan 16 13:37:57 2019


Gurobi 8.0.1 (linux64, Python) logging started Wed Jan 16 13:38:45 2019


Gurobi 8.0.1 (linux64, Python) logging started Wed Jan 16 13:39:32 2019


Gurobi 8.0.1 (linux64, Python) logging started Wed Jan 16 13:39:46 2019

